p cnf 958 2458
51 -692 -693 0
-51 692 0
-51 693 0
52 -51 -3 0
-52 51 0
-52 3 0
53 -694 -695 0
-53 694 0
-53 695 0
54 -53 -6 0
-54 53 0
-54 6 0
55 -696 -697 0
-55 696 0
-55 697 0
56 -698 -699 0
-56 698 0
-56 699 0
57 -56 -9 0
-57 56 0
-57 9 0
58 -700 -55 0
-58 700 0
-58 55 0
59 -10 -693 0
-59 10 0
-59 693 0
60 -59 -11 0
-60 59 0
-60 11 0
61 -701 -58 0
-61 701 0
-61 58 0
62 -12 -692 0
-62 12 0
-62 692 0
63 -62 -702 0
-63 62 0
-63 702 0
64 -703 -61 0
-64 703 0
-64 61 0
65 -14 -695 0
-65 14 0
-65 695 0
66 -65 -3 0
-66 65 0
-66 3 0
67 -704 -64 0
-67 704 0
-67 64 0
68 -16 -15 0
-68 16 0
-68 15 0
69 -68 -17 0
-69 68 0
-69 17 0
70 -705 -67 0
-70 705 0
-70 67 0
71 -706 -18 0
-71 706 0
-71 18 0
72 -71 -20 0
-72 71 0
-72 20 0
73 -707 -70 0
-73 707 0
-73 70 0
74 -21 -708 0
-74 21 0
-74 708 0
75 -74 -22 0
-75 74 0
-75 22 0
76 -709 -73 0
-76 709 0
-76 73 0
77 -710 -4 0
-77 710 0
-77 4 0
78 -77 -22 0
-78 77 0
-78 22 0
79 -711 -76 0
-79 711 0
-79 76 0
80 -712 -713 0
-80 712 0
-80 713 0
81 -80 -11 0
-81 80 0
-81 11 0
82 -714 -79 0
-82 714 0
-82 79 0
83 -26 -12 0
-83 26 0
-83 12 0
84 -83 -712 0
-84 83 0
-84 712 0
85 -715 -82 0
-85 715 0
-85 82 0
86 -28 -27 0
-86 28 0
-86 27 0
87 -86 -692 0
-87 86 0
-87 692 0
88 -716 -85 0
-88 716 0
-88 85 0
89 -717 -5 0
-89 717 0
-89 5 0
90 -89 -22 0
-90 89 0
-90 22 0
91 -718 -88 0
-91 718 0
-91 88 0
92 -30 -719 0
-92 30 0
-92 719 0
93 -92 -22 0
-93 92 0
-93 22 0
94 -720 -91 0
-94 720 0
-94 91 0
95 -29 -721 0
-95 29 0
-95 721 0
96 -95 -722 0
-96 95 0
-96 722 0
97 -723 -94 0
-97 723 0
-97 94 0
98 -31 -26 0
-98 31 0
-98 26 0
99 -98 -18 0
-99 98 0
-99 18 0
100 -724 -97 0
-100 724 0
-100 97 0
101 -725 -726 0
-101 725 0
-101 726 0
102 -101 -702 0
-102 101 0
-102 702 0
103 -727 -100 0
-103 727 0
-103 100 0
104 -32 -692 0
-104 32 0
-104 692 0
105 -104 -728 0
-105 104 0
-105 728 0
106 -729 -103 0
-106 729 0
-106 103 0
107 -34 -695 0
-107 34 0
-107 695 0
108 -107 -702 0
-108 107 0
-108 702 0
109 -730 -106 0
-109 730 0
-109 106 0
110 -731 -694 0
-110 731 0
-110 694 0
111 -110 -20 0
-111 110 0
-111 20 0
112 -732 -109 0
-112 732 0
-112 109 0
113 -733 -19 0
-113 733 0
-113 19 0
114 -113 -692 0
-114 113 0
-114 692 0
115 -734 -112 0
-115 734 0
-115 112 0
116 -713 -694 0
-116 713 0
-116 694 0
117 -116 -735 0
-117 116 0
-117 735 0
118 -736 -115 0
-118 736 0
-118 115 0
119 -731 -14 0
-119 731 0
-119 14 0
120 -119 -728 0
-120 119 0
-120 728 0
121 -737 -118 0
-121 737 0
-121 118 0
122 -719 -738 0
-122 719 0
-122 738 0
123 -122 -14 0
-123 122 0
-123 14 0
124 -739 -121 0
-124 739 0
-124 121 0
125 -37 -28 0
-125 37 0
-125 28 0
126 -125 -38 0
-126 125 0
-126 38 0
127 -740 -124 0
-127 740 0
-127 124 0
128 -741 -725 0
-128 741 0
-128 725 0
129 -128 -29 0
-129 128 0
-129 29 0
130 -742 -127 0
-130 742 0
-130 127 0
131 -4 -693 0
-131 4 0
-131 693 0
132 -131 -743 0
-132 131 0
-132 743 0
133 -744 -130 0
-133 744 0
-133 130 0
134 -20 -10 0
-134 20 0
-134 10 0
135 -134 -30 0
-135 134 0
-135 30 0
136 -745 -133 0
-136 745 0
-136 133 0
137 -33 -26 0
-137 33 0
-137 26 0
138 -137 -746 0
-138 137 0
-138 746 0
139 -747 -136 0
-139 747 0
-139 136 0
140 -39 -28 0
-140 39 0
-140 28 0
141 -140 -33 0
-141 140 0
-141 33 0
142 -748 -139 0
-142 748 0
-142 139 0
143 -40 -699 0
-143 40 0
-143 699 0
144 -143 -749 0
-144 143 0
-144 749 0
145 -750 -142 0
-145 750 0
-145 142 0
146 -751 -726 0
-146 751 0
-146 726 0
147 -146 -698 0
-147 146 0
-147 698 0
148 -752 -145 0
-148 752 0
-148 145 0
149 -32 -726 0
-149 32 0
-149 726 0
150 -149 -13 0
-150 149 0
-150 13 0
151 -753 -148 0
-151 753 0
-151 148 0
152 -42 -754 0
-152 42 0
-152 754 0
153 -152 -9 0
-153 152 0
-153 9 0
154 -755 -151 0
-154 755 0
-154 151 0
155 -30 -11 0
-155 30 0
-155 11 0
156 -155 -33 0
-156 155 0
-156 33 0
157 -756 -154 0
-157 756 0
-157 154 0
158 -757 -722 0
-158 757 0
-158 722 0
159 -158 -735 0
-159 158 0
-159 735 0
160 -758 -157 0
-160 758 0
-160 157 0
161 -726 -18 0
-161 726 0
-161 18 0
162 -161 -698 0
-162 161 0
-162 698 0
163 -759 -160 0
-163 759 0
-163 160 0
164 -760 -694 0
-164 760 0
-164 694 0
165 -164 -17 0
-165 164 0
-165 17 0
166 -761 -163 0
-166 761 0
-166 163 0
167 -32 -26 0
-167 32 0
-167 26 0
168 -167 -43 0
-168 167 0
-168 43 0
169 -762 -166 0
-169 762 0
-169 166 0
170 -757 -763 0
-170 757 0
-170 763 0
171 -170 -8 0
-171 170 0
-171 8 0
172 -764 -169 0
-172 764 0
-172 169 0
173 -765 -4 0
-173 765 0
-173 4 0
174 -173 -693 0
-174 173 0
-174 693 0
175 -766 -172 0
-175 766 0
-175 172 0
176 -31 -699 0
-176 31 0
-176 699 0
177 -176 -695 0
-177 176 0
-177 695 0
178 -767 -175 0
-178 767 0
-178 175 0
179 -706 -5 0
-179 706 0
-179 5 0
180 -179 -712 0
-180 179 0
-180 712 0
181 -768 -178 0
-181 768 0
-181 178 0
182 -31 -695 0
-182 31 0
-182 695 0
183 -182 -769 0
-183 182 0
-183 769 0
184 -770 -181 0
-184 770 0
-184 181 0
185 -728 -4 0
-185 728 0
-185 4 0
186 -185 -746 0
-186 185 0
-186 746 0
187 -771 -184 0
-187 771 0
-187 184 0
188 -757 -34 0
-188 757 0
-188 34 0
189 -188 -18 0
-189 188 0
-189 18 0
190 -772 -187 0
-190 772 0
-190 187 0
191 -773 -14 0
-191 773 0
-191 14 0
192 -191 -17 0
-192 191 0
-192 17 0
193 -774 -190 0
-193 774 0
-193 190 0
194 -39 -34 0
-194 39 0
-194 34 0
195 -194 -29 0
-195 194 0
-195 29 0
196 -775 -193 0
-196 775 0
-196 193 0
197 -776 -719 0
-197 776 0
-197 719 0
198 -197 -698 0
-198 197 0
-198 698 0
199 -777 -196 0
-199 777 0
-199 196 0
200 -741 -24 0
-200 741 0
-200 24 0
201 -200 -3 0
-201 200 0
-201 3 0
202 -778 -199 0
-202 778 0
-202 199 0
203 -25 -23 0
-203 25 0
-203 23 0
204 -203 -754 0
-204 203 0
-204 754 0
205 -779 -202 0
-205 779 0
-205 202 0
206 -46 -717 0
-206 46 0
-206 717 0
207 -206 -42 0
-207 206 0
-207 42 0
208 -780 -205 0
-208 780 0
-208 205 0
209 -37 -17 0
-209 37 0
-209 17 0
210 -209 -781 0
-210 209 0
-210 781 0
211 -782 -208 0
-211 782 0
-211 208 0
212 -197 -44 0
-212 197 0
-212 44 0
213 -783 -211 0
-213 783 0
-213 211 0
214 -37 -717 0
-214 37 0
-214 717 0
215 -214 -47 0
-215 214 0
-215 47 0
216 -784 -213 0
-216 784 0
-216 213 0
217 -31 -7 0
-217 31 0
-217 7 0
218 -217 -18 0
-218 217 0
-218 18 0
219 -785 -216 0
-219 785 0
-219 216 0
220 -28 -786 0
-220 28 0
-220 786 0
221 -220 -754 0
-221 220 0
-221 754 0
222 -787 -219 0
-222 787 0
-222 219 0
223 -7 -4 0
-223 7 0
-223 4 0
224 -223 -788 0
-224 223 0
-224 788 0
225 -789 -222 0
-225 789 0
-225 222 0
226 -31 -27 0
-226 31 0
-226 27 0
227 -226 -695 0
-227 226 0
-227 695 0
228 -790 -225 0
-228 790 0
-228 225 0
229 -46 -40 0
-229 46 0
-229 40 0
230 -229 -42 0
-230 229 0
-230 42 0
231 -791 -228 0
-231 791 0
-231 228 0
232 -23 -19 0
-232 23 0
-232 19 0
233 -232 -20 0
-233 232 0
-233 20 0
234 -792 -231 0
-234 792 0
-234 231 0
235 -27 -719 0
-235 27 0
-235 719 0
236 -235 -793 0
-236 235 0
-236 793 0
237 -794 -234 0
-237 794 0
-237 234 0
238 -731 -11 0
-238 731 0
-238 11 0
239 -238 -795 0
-239 238 0
-239 795 0
240 -796 -237 0
-240 796 0
-240 237 0
241 -763 -721 0
-241 763 0
-241 721 0
242 -241 -22 0
-242 241 0
-242 22 0
243 -797 -240 0
-243 797 0
-243 240 0
244 -46 -798 0
-244 46 0
-244 798 0
245 -244 -9 0
-245 244 0
-245 9 0
246 -799 -243 0
-246 799 0
-246 243 0
247 -179 -30 0
-247 179 0
-247 30 0
248 -800 -246 0
-248 800 0
-248 246 0
249 -43 -708 0
-249 43 0
-249 708 0
250 -249 -30 0
-250 249 0
-250 30 0
251 -801 -248 0
-251 801 0
-251 248 0
252 -25 -15 0
-252 25 0
-252 15 0
253 -252 -6 0
-253 252 0
-253 6 0
254 -802 -251 0
-254 802 0
-254 251 0
255 -710 -10 0
-255 710 0
-255 10 0
256 -255 -695 0
-256 255 0
-256 695 0
257 -803 -254 0
-257 803 0
-257 254 0
258 -255 -25 0
-258 255 0
-258 25 0
259 -804 -257 0
-259 804 0
-259 257 0
260 -46 -725 0
-260 46 0
-260 725 0
261 -260 -776 0
-261 260 0
-261 776 0
262 -805 -259 0
-262 805 0
-262 259 0
263 -765 -754 0
-263 765 0
-263 754 0
264 -263 -36 0
-264 263 0
-264 36 0
265 -806 -262 0
-265 806 0
-265 262 0
266 -46 -15 0
-266 46 0
-266 15 0
267 -266 -733 0
-267 266 0
-267 733 0
268 -807 -265 0
-268 807 0
-268 265 0
269 -27 -738 0
-269 27 0
-269 738 0
270 -269 -693 0
-270 269 0
-270 693 0
271 -808 -268 0
-271 808 0
-271 268 0
272 -765 -773 0
-272 765 0
-272 773 0
273 -272 -16 0
-273 272 0
-273 16 0
274 -809 -271 0
-274 809 0
-274 271 0
275 -28 -1 0
-275 28 0
-275 1 0
276 -275 -810 0
-276 275 0
-276 810 0
277 -811 -274 0
-277 811 0
-277 274 0
278 -38 -16 0
-278 38 0
-278 16 0
279 -278 -812 0
-279 278 0
-279 812 0
280 -813 -277 0
-280 813 0
-280 277 0
281 -814 -48 0
-281 814 0
-281 48 0
282 -281 -712 0
-282 281 0
-282 712 0
283 -815 -280 0
-283 815 0
-283 280 0
284 -18 -699 0
-284 18 0
-284 699 0
285 -284 -19 0
-285 284 0
-285 19 0
286 -816 -283 0
-286 816 0
-286 283 0
287 -817 -35 0
-287 817 0
-287 35 0
288 -287 -698 0
-288 287 0
-288 698 0
289 -818 -286 0
-289 818 0
-289 286 0
290 -741 -12 0
-290 741 0
-290 12 0
291 -290 -692 0
-291 290 0
-291 692 0
292 -819 -289 0
-292 819 0
-292 289 0
293 -765 -28 0
-293 765 0
-293 28 0
294 -293 -743 0
-294 293 0
-294 743 0
295 -820 -292 0
-295 820 0
-295 292 0
296 -717 -706 0
-296 717 0
-296 706 0
297 -296 -728 0
-297 296 0
-297 728 0
298 -821 -295 0
-298 821 0
-298 295 0
299 -49 -14 0
-299 49 0
-299 14 0
300 -299 -44 0
-300 299 0
-300 44 0
301 -822 -298 0
-301 822 0
-301 298 0
302 -710 -692 0
-302 710 0
-302 692 0
303 -302 -33 0
-303 302 0
-303 33 0
304 -823 -301 0
-304 823 0
-304 301 0
305 -37 -3 0
-305 37 0
-305 3 0
306 -305 -746 0
-306 305 0
-306 746 0
307 -824 -304 0
-307 824 0
-307 304 0
308 -33 -699 0
-308 33 0
-308 699 0
309 -308 -9 0
-309 308 0
-309 9 0
310 -825 -307 0
-310 825 0
-310 307 0
311 -48 -15 0
-311 48 0
-311 15 0
312 -311 -44 0
-312 311 0
-312 44 0
313 -826 -310 0
-313 826 0
-313 310 0
314 -725 -763 0
-314 725 0
-314 763 0
315 -314 -769 0
-315 314 0
-315 769 0
316 -827 -313 0
-316 827 0
-316 313 0
317 -795 -37 0
-317 795 0
-317 37 0
318 -317 -13 0
-318 317 0
-318 13 0
319 -828 -316 0
-319 828 0
-319 316 0
320 -733 -706 0
-320 733 0
-320 706 0
321 -320 -829 0
-321 320 0
-321 829 0
322 -830 -319 0
-322 830 0
-322 319 0
323 -37 -738 0
-323 37 0
-323 738 0
324 -323 -13 0
-324 323 0
-324 13 0
325 -831 -322 0
-325 831 0
-325 322 0
326 -788 -5 0
-326 788 0
-326 5 0
327 -326 -832 0
-327 326 0
-327 832 0
328 -833 -325 0
-328 833 0
-328 325 0
329 -749 -37 0
-329 749 0
-329 37 0
330 -329 -793 0
-330 329 0
-330 793 0
331 -834 -328 0
-331 834 0
-331 328 0
332 -795 -760 0
-332 795 0
-332 760 0
333 -332 -6 0
-333 332 0
-333 6 0
334 -835 -331 0
-334 835 0
-334 331 0
335 -781 -15 0
-335 781 0
-335 15 0
336 -335 -50 0
-336 335 0
-336 50 0
337 -836 -334 0
-337 836 0
-337 334 0
338 -717 -11 0
-338 717 0
-338 11 0
339 -338 -33 0
-339 338 0
-339 33 0
340 -837 -337 0
-340 837 0
-340 337 0
341 -45 -757 0
-341 45 0
-341 757 0
342 -341 -702 0
-342 341 0
-342 702 0
343 -838 -340 0
-343 838 0
-343 340 0
344 -41 -695 0
-344 41 0
-344 695 0
345 -344 -786 0
-345 344 0
-345 786 0
346 -839 -343 0
-346 839 0
-346 343 0
347 -743 -693 0
-347 743 0
-347 693 0
348 -347 -754 0
-348 347 0
-348 754 0
349 -840 -346 0
-349 840 0
-349 346 0
350 -841 -773 0
-350 841 0
-350 773 0
351 -350 -788 0
-351 350 0
-351 788 0
352 -842 -349 0
-352 842 0
-352 349 0
353 -50 -38 0
-353 50 0
-353 38 0
354 -353 -6 0
-354 353 0
-354 6 0
355 -843 -352 0
-355 843 0
-355 352 0
356 -788 -28 0
-356 788 0
-356 28 0
357 -356 -698 0
-357 356 0
-357 698 0
358 -844 -355 0
-358 844 0
-358 355 0
359 -28 -23 0
-359 28 0
-359 23 0
360 -359 -15 0
-360 359 0
-360 15 0
361 -845 -358 0
-361 845 0
-361 358 0
362 -39 -710 0
-362 39 0
-362 710 0
363 -362 -21 0
-363 362 0
-363 21 0
364 -846 -361 0
-364 846 0
-364 361 0
365 -710 -20 0
-365 710 0
-365 20 0
366 -365 -8 0
-366 365 0
-366 8 0
367 -847 -364 0
-367 847 0
-367 364 0
368 -38 -841 0
-368 38 0
-368 841 0
369 -368 -793 0
-369 368 0
-369 793 0
370 -848 -367 0
-370 848 0
-370 367 0
371 -817 -751 0
-371 817 0
-371 751 0
372 -371 -728 0
-372 371 0
-372 728 0
373 -849 -370 0
-373 849 0
-373 370 0
374 -751 -706 0
-374 751 0
-374 706 0
375 -374 -44 0
-375 374 0
-375 44 0
376 -850 -373 0
-376 850 0
-376 373 0
377 -751 -781 0
-377 751 0
-377 781 0
378 -377 -3 0
-378 377 0
-378 3 0
379 -851 -376 0
-379 851 0
-379 376 0
380 -26 -10 0
-380 26 0
-380 10 0
381 -380 -49 0
-381 380 0
-381 49 0
382 -852 -379 0
-382 852 0
-382 379 0
383 -43 -812 0
-383 43 0
-383 812 0
384 -383 -781 0
-384 383 0
-384 781 0
385 -853 -382 0
-385 853 0
-385 382 0
386 -48 -726 0
-386 48 0
-386 726 0
387 -386 -20 0
-387 386 0
-387 20 0
388 -854 -385 0
-388 854 0
-388 385 0
389 -34 -699 0
-389 34 0
-389 699 0
390 -389 -706 0
-390 389 0
-390 706 0
391 -855 -388 0
-391 855 0
-391 388 0
392 -817 -26 0
-392 817 0
-392 26 0
393 -392 -41 0
-393 392 0
-393 41 0
394 -856 -391 0
-394 856 0
-394 391 0
395 -32 -712 0
-395 32 0
-395 712 0
396 -395 -44 0
-396 395 0
-396 44 0
397 -857 -394 0
-397 857 0
-397 394 0
398 -717 -4 0
-398 717 0
-398 4 0
399 -398 -20 0
-399 398 0
-399 20 0
400 -858 -397 0
-400 858 0
-400 397 0
401 -8 -693 0
-401 8 0
-401 693 0
402 -401 -3 0
-402 401 0
-402 3 0
403 -859 -400 0
-403 859 0
-403 400 0
404 -44 -765 0
-404 44 0
-404 765 0
405 -404 -728 0
-405 404 0
-405 728 0
406 -860 -403 0
-406 860 0
-406 403 0
407 -814 -841 0
-407 814 0
-407 841 0
408 -407 -793 0
-408 407 0
-408 793 0
409 -861 -406 0
-409 861 0
-409 406 0
410 -31 -692 0
-410 31 0
-410 692 0
411 -410 -832 0
-411 410 0
-411 832 0
412 -862 -409 0
-412 862 0
-412 409 0
413 -763 -16 0
-413 763 0
-413 16 0
414 -413 -829 0
-414 413 0
-414 829 0
415 -863 -412 0
-415 863 0
-415 412 0
416 -722 -9 0
-416 722 0
-416 9 0
417 -416 -36 0
-417 416 0
-417 36 0
418 -864 -415 0
-418 864 0
-418 415 0
419 -817 -27 0
-419 817 0
-419 27 0
420 -419 -2 0
-420 419 0
-420 2 0
421 -865 -418 0
-421 865 0
-421 418 0
422 -24 -721 0
-422 24 0
-422 721 0
423 -422 -42 0
-423 422 0
-423 42 0
424 -866 -421 0
-424 866 0
-424 421 0
425 -713 -7 0
-425 713 0
-425 7 0
426 -425 -786 0
-426 425 0
-426 786 0
427 -867 -424 0
-427 867 0
-427 424 0
428 -17 -10 0
-428 17 0
-428 10 0
429 -428 -9 0
-429 428 0
-429 9 0
430 -868 -427 0
-430 868 0
-430 427 0
431 -45 -33 0
-431 45 0
-431 33 0
432 -431 -9 0
-432 431 0
-432 9 0
433 -869 -430 0
-433 869 0
-433 430 0
434 -22 -733 0
-434 22 0
-434 733 0
435 -434 -33 0
-435 434 0
-435 33 0
436 -870 -433 0
-436 870 0
-436 433 0
437 -104 -793 0
-437 104 0
-437 793 0
438 -871 -436 0
-438 871 0
-438 436 0
439 -35 -721 0
-439 35 0
-439 721 0
440 -439 -42 0
-440 439 0
-440 42 0
441 -872 -438 0
-441 872 0
-441 438 0
442 -757 -7 0
-442 757 0
-442 7 0
443 -442 -44 0
-443 442 0
-443 44 0
444 -873 -441 0
-444 873 0
-444 441 0
445 -27 -3 0
-445 27 0
-445 3 0
446 -445 -50 0
-446 445 0
-446 50 0
447 -874 -444 0
-447 874 0
-447 444 0
448 -712 -719 0
-448 712 0
-448 719 0
449 -448 -8 0
-449 448 0
-449 8 0
450 -875 -447 0
-450 875 0
-450 447 0
451 -798 -719 0
-451 798 0
-451 719 0
452 -451 -741 0
-452 451 0
-452 741 0
453 -876 -450 0
-453 876 0
-453 450 0
454 -717 -713 0
-454 717 0
-454 713 0
455 -454 -42 0
-455 454 0
-455 42 0
456 -877 -453 0
-456 877 0
-456 453 0
457 -36 -721 0
-457 36 0
-457 721 0
458 -457 -6 0
-458 457 0
-458 6 0
459 -878 -456 0
-459 878 0
-459 456 0
460 -760 -17 0
-460 760 0
-460 17 0
461 -460 -812 0
-461 460 0
-461 812 0
462 -879 -459 0
-462 879 0
-462 459 0
463 -45 -694 0
-463 45 0
-463 694 0
464 -463 -795 0
-464 463 0
-464 795 0
465 -880 -462 0
-465 880 0
-465 462 0
466 -24 -692 0
-466 24 0
-466 692 0
467 -466 -702 0
-467 466 0
-467 702 0
468 -881 -465 0
-468 881 0
-468 465 0
469 -41 -731 0
-469 41 0
-469 731 0
470 -469 -49 0
-470 469 0
-470 49 0
471 -882 -468 0
-471 882 0
-471 468 0
472 -765 -23 0
-472 765 0
-472 23 0
473 -472 -746 0
-473 472 0
-473 746 0
474 -883 -471 0
-474 883 0
-474 471 0
475 -788 -38 0
-475 788 0
-475 38 0
476 -475 -735 0
-476 475 0
-476 735 0
477 -884 -474 0
-477 884 0
-477 474 0
478 -49 -31 0
-478 49 0
-478 31 0
479 -478 -728 0
-479 478 0
-479 728 0
480 -885 -477 0
-480 885 0
-480 477 0
481 -760 -693 0
-481 760 0
-481 693 0
482 -481 -754 0
-482 481 0
-482 754 0
483 -886 -480 0
-483 886 0
-483 480 0
484 -743 -738 0
-484 743 0
-484 738 0
485 -484 -722 0
-485 484 0
-485 722 0
486 -887 -483 0
-486 887 0
-486 483 0
487 -731 -15 0
-487 731 0
-487 15 0
488 -487 -14 0
-488 487 0
-488 14 0
489 -888 -486 0
-489 888 0
-489 486 0
490 -829 -694 0
-490 829 0
-490 694 0
491 -490 -9 0
-491 490 0
-491 9 0
492 -889 -489 0
-492 889 0
-492 489 0
493 -795 -773 0
-493 795 0
-493 773 0
494 -493 -702 0
-494 493 0
-494 702 0
495 -890 -492 0
-495 890 0
-495 492 0
496 -741 -743 0
-496 741 0
-496 743 0
497 -496 -722 0
-497 496 0
-497 722 0
498 -891 -495 0
-498 891 0
-498 495 0
499 -733 -7 0
-499 733 0
-499 7 0
500 -499 -832 0
-500 499 0
-500 832 0
501 -892 -498 0
-501 892 0
-501 498 0
502 -32 -28 0
-502 32 0
-502 28 0
503 -502 -14 0
-503 502 0
-503 14 0
504 -893 -501 0
-504 893 0
-504 501 0
505 -769 -16 0
-505 769 0
-505 16 0
506 -505 -8 0
-506 505 0
-506 8 0
507 -894 -504 0
-507 894 0
-507 504 0
508 -760 -10 0
-508 760 0
-508 10 0
509 -508 -21 0
-509 508 0
-509 21 0
510 -895 -507 0
-510 895 0
-510 507 0
511 -731 -708 0
-511 731 0
-511 708 0
512 -511 -728 0
-512 511 0
-512 728 0
513 -896 -510 0
-513 896 0
-513 510 0
514 -814 -693 0
-514 814 0
-514 693 0
515 -514 -25 0
-515 514 0
-515 25 0
516 -897 -513 0
-516 897 0
-516 513 0
517 -726 -713 0
-517 726 0
-517 713 0
518 -517 -741 0
-518 517 0
-518 741 0
519 -898 -516 0
-519 898 0
-519 516 0
520 -726 -710 0
-520 726 0
-520 710 0
521 -520 -30 0
-521 520 0
-521 30 0
522 -899 -519 0
-522 899 0
-522 519 0
523 -694 -692 0
-523 694 0
-523 692 0
524 -523 -735 0
-524 523 0
-524 735 0
525 -900 -522 0
-525 900 0
-525 522 0
526 -40 -754 0
-526 40 0
-526 754 0
527 -526 -702 0
-527 526 0
-527 702 0
528 -901 -525 0
-528 901 0
-528 525 0
529 -44 -721 0
-529 44 0
-529 721 0
530 -529 -793 0
-530 529 0
-530 793 0
531 -902 -528 0
-531 902 0
-531 528 0
532 -37 -29 0
-532 37 0
-532 29 0
533 -532 -793 0
-533 532 0
-533 793 0
534 -903 -531 0
-534 903 0
-534 531 0
535 -760 -11 0
-535 760 0
-535 11 0
536 -535 -810 0
-536 535 0
-536 810 0
537 -904 -534 0
-537 904 0
-537 534 0
538 -229 -812 0
-538 229 0
-538 812 0
539 -905 -537 0
-539 905 0
-539 537 0
540 -798 -11 0
-540 798 0
-540 11 0
541 -540 -829 0
-541 540 0
-541 829 0
542 -906 -539 0
-542 906 0
-542 539 0
543 -41 -19 0
-543 41 0
-543 19 0
544 -543 -810 0
-544 543 0
-544 810 0
545 -907 -542 0
-545 907 0
-545 542 0
546 -24 -693 0
-546 24 0
-546 693 0
547 -546 -36 0
-547 546 0
-547 36 0
548 -908 -545 0
-548 908 0
-548 545 0
549 -706 -699 0
-549 706 0
-549 699 0
550 -549 -781 0
-550 549 0
-550 781 0
551 -909 -548 0
-551 909 0
-551 548 0
552 -24 -4 0
-552 24 0
-552 4 0
553 -552 -22 0
-553 552 0
-553 22 0
554 -910 -551 0
-554 910 0
-554 551 0
555 -814 -832 0
-555 814 0
-555 832 0
556 -555 -911 0
-556 555 0
-556 911 0
557 -912 -554 0
-557 912 0
-557 554 0
558 -41 -39 0
-558 41 0
-558 39 0
559 -558 -735 0
-559 558 0
-559 735 0
560 -913 -557 0
-560 913 0
-560 557 0
561 -46 -741 0
-561 46 0
-561 741 0
562 -561 -769 0
-562 561 0
-562 769 0
563 -914 -560 0
-563 914 0
-563 560 0
564 -31 -5 0
-564 31 0
-564 5 0
565 -564 -16 0
-565 564 0
-565 16 0
566 -915 -563 0
-566 915 0
-566 563 0
567 -749 -726 0
-567 749 0
-567 726 0
568 -567 -43 0
-568 567 0
-568 43 0
569 -916 -566 0
-569 916 0
-569 566 0
570 -817 -40 0
-570 817 0
-570 40 0
571 -570 -695 0
-571 570 0
-571 695 0
572 -917 -569 0
-572 917 0
-572 569 0
573 -814 -41 0
-573 814 0
-573 41 0
574 -573 -793 0
-574 573 0
-574 793 0
575 -918 -572 0
-575 918 0
-575 572 0
576 -710 -738 0
-576 710 0
-576 738 0
577 -576 -817 0
-577 576 0
-577 817 0
578 -919 -575 0
-578 919 0
-578 575 0
579 -798 -10 0
-579 798 0
-579 10 0
580 -579 -17 0
-580 579 0
-580 17 0
581 -920 -578 0
-581 920 0
-581 578 0
582 -817 -39 0
-582 817 0
-582 39 0
583 -582 -698 0
-583 582 0
-583 698 0
584 -921 -581 0
-584 921 0
-584 581 0
585 -179 -754 0
-585 179 0
-585 754 0
586 -922 -584 0
-586 922 0
-586 584 0
587 -795 -731 0
-587 795 0
-587 731 0
588 -587 -50 0
-588 587 0
-588 50 0
589 -923 -586 0
-589 923 0
-589 586 0
590 -19 -738 0
-590 19 0
-590 738 0
591 -590 -20 0
-591 590 0
-591 20 0
592 -924 -589 0
-592 924 0
-592 589 0
593 -795 -713 0
-593 795 0
-593 713 0
594 -593 -722 0
-594 593 0
-594 722 0
595 -925 -592 0
-595 925 0
-595 592 0
596 -731 -34 0
-596 731 0
-596 34 0
597 -596 -706 0
-597 596 0
-597 706 0
598 -926 -595 0
-598 926 0
-598 595 0
599 -27 -726 0
-599 27 0
-599 726 0
600 -599 -21 0
-600 599 0
-600 21 0
601 -927 -598 0
-601 927 0
-601 598 0
602 -13 -692 0
-602 13 0
-602 692 0
603 -602 -735 0
-603 602 0
-603 735 0
604 -928 -601 0
-604 928 0
-604 601 0
605 -726 -23 0
-605 726 0
-605 23 0
606 -605 -46 0
-606 605 0
-606 46 0
607 -929 -604 0
-607 929 0
-607 604 0
608 -757 -16 0
-608 757 0
-608 16 0
609 -608 -769 0
-609 608 0
-609 769 0
610 -930 -607 0
-610 930 0
-610 607 0
611 -832 -738 0
-611 832 0
-611 738 0
612 -611 -810 0
-612 611 0
-612 810 0
613 -931 -610 0
-613 931 0
-613 610 0
614 -16 -5 0
-614 16 0
-614 5 0
615 -614 -776 0
-615 614 0
-615 776 0
616 -932 -613 0
-616 932 0
-616 613 0
617 -46 -41 0
-617 46 0
-617 41 0
618 -617 -45 0
-618 617 0
-618 45 0
619 -933 -616 0
-619 933 0
-619 616 0
620 -776 -20 0
-620 776 0
-620 20 0
621 -620 -832 0
-621 620 0
-621 832 0
622 -934 -619 0
-622 934 0
-622 619 0
623 -23 -763 0
-623 23 0
-623 763 0
624 -623 -728 0
-624 623 0
-624 728 0
625 -935 -622 0
-625 935 0
-625 622 0
626 -39 -37 0
-626 39 0
-626 37 0
627 -626 -20 0
-627 626 0
-627 20 0
628 -936 -625 0
-628 936 0
-628 625 0
629 -194 -16 0
-629 194 0
-629 16 0
630 -937 -628 0
-630 937 0
-630 628 0
631 -706 -10 0
-631 706 0
-631 10 0
632 -631 -698 0
-632 631 0
-632 698 0
633 -938 -630 0
-633 938 0
-633 630 0
634 -41 -40 0
-634 41 0
-634 40 0
635 -634 -47 0
-635 634 0
-635 47 0
636 -939 -633 0
-636 939 0
-636 633 0
637 -717 -692 0
-637 717 0
-637 692 0
638 -637 -743 0
-638 637 0
-638 743 0
639 -940 -636 0
-639 940 0
-639 636 0
640 -34 -7 0
-640 34 0
-640 7 0
641 -640 -17 0
-641 640 0
-641 17 0
642 -941 -639 0
-642 941 0
-642 639 0
643 -39 -23 0
-643 39 0
-643 23 0
644 -643 -35 0
-644 643 0
-644 35 0
645 -942 -642 0
-645 942 0
-645 642 0
646 -717 -26 0
-646 717 0
-646 26 0
647 -646 -692 0
-647 646 0
-647 692 0
648 -943 -645 0
-648 943 0
-648 645 0
649 -39 -725 0
-649 39 0
-649 725 0
650 -649 -781 0
-650 649 0
-650 781 0
651 -944 -648 0
-651 944 0
-651 648 0
652 -773 -710 0
-652 773 0
-652 710 0
653 -652 -692 0
-653 652 0
-653 692 0
654 -945 -651 0
-654 945 0
-654 651 0
655 -40 -12 0
-655 40 0
-655 12 0
656 -655 -733 0
-656 655 0
-656 733 0
657 -946 -654 0
-657 946 0
-657 654 0
658 -769 -17 0
-658 769 0
-658 17 0
659 -658 -6 0
-659 658 0
-659 6 0
660 -947 -657 0
-660 947 0
-660 657 0
661 -817 -738 0
-661 817 0
-661 738 0
662 -661 -810 0
-662 661 0
-662 810 0
663 -948 -660 0
-663 948 0
-663 660 0
664 -39 -731 0
-664 39 0
-664 731 0
665 -664 -773 0
-665 664 0
-665 773 0
666 -949 -663 0
-666 949 0
-666 663 0
667 -38 -692 0
-667 38 0
-667 692 0
668 -667 -793 0
-668 667 0
-668 793 0
669 -950 -666 0
-669 950 0
-669 666 0
670 -634 -30 0
-670 634 0
-670 30 0
671 -951 -669 0
-671 951 0
-671 669 0
672 -788 -7 0
-672 788 0
-672 7 0
673 -672 -769 0
-673 672 0
-673 769 0
674 -952 -671 0
-674 952 0
-674 671 0
675 -40 -719 0
-675 40 0
-675 719 0
676 -675 -760 0
-676 675 0
-676 760 0
677 -953 -674 0
-677 953 0
-677 674 0
678 -21 -2 0
-678 21 0
-678 2 0
679 -678 -829 0
-679 678 0
-679 829 0
680 -954 -677 0
-680 954 0
-680 677 0
681 -83 -30 0
-681 83 0
-681 30 0
682 -955 -680 0
-682 955 0
-682 680 0
683 -32 -14 0
-683 32 0
-683 14 0
684 -683 -749 0
-684 683 0
-684 749 0
685 -956 -682 0
-685 956 0
-685 682 0
686 -44 -832 0
-686 44 0
-686 832 0
687 -686 -13 0
-687 686 0
-687 13 0
688 -957 -685 0
-688 957 0
-688 685 0
689 -817 -812 0
-689 817 0
-689 812 0
690 -689 -793 0
-690 689 0
-690 793 0
691 -958 -688 0
-691 958 0
-691 688 0
-692 -2 0
692 2 0
-693 -1 0
693 1 0
-694 -5 0
694 5 0
-695 -4 0
695 4 0
-696 -54 0
696 54 0
-697 -52 0
697 52 0
-698 -8 0
698 8 0
-699 -7 0
699 7 0
-700 -57 0
700 57 0
-701 -60 0
701 60 0
-702 -13 0
702 13 0
-703 -63 0
703 63 0
-704 -66 0
704 66 0
-705 -69 0
705 69 0
-706 -19 0
706 19 0
-707 -72 0
707 72 0
-708 -16 0
708 16 0
-709 -75 0
709 75 0
-710 -23 0
710 23 0
-711 -78 0
711 78 0
-712 -25 0
712 25 0
-713 -24 0
713 24 0
-714 -81 0
714 81 0
-715 -84 0
715 84 0
-716 -87 0
716 87 0
-717 -29 0
717 29 0
-718 -90 0
718 90 0
-719 -12 0
719 12 0
-720 -93 0
720 93 0
-721 -15 0
721 15 0
-722 -17 0
722 17 0
-723 -96 0
723 96 0
-724 -99 0
724 99 0
-725 -27 0
725 27 0
-726 -26 0
726 26 0
-727 -102 0
727 102 0
-728 -33 0
728 33 0
-729 -105 0
729 105 0
-730 -108 0
730 108 0
-731 -35 0
731 35 0
-732 -111 0
732 111 0
-733 -21 0
733 21 0
-734 -114 0
734 114 0
-735 -36 0
735 36 0
-736 -117 0
736 117 0
-737 -120 0
737 120 0
-738 -10 0
738 10 0
-739 -123 0
739 123 0
-740 -126 0
740 126 0
-741 -37 0
741 37 0
-742 -129 0
742 129 0
-743 -14 0
743 14 0
-744 -132 0
744 132 0
-745 -135 0
745 135 0
-746 -6 0
746 6 0
-747 -138 0
747 138 0
-748 -141 0
748 141 0
-749 -38 0
749 38 0
-750 -144 0
750 144 0
-751 -41 0
751 41 0
-752 -147 0
752 147 0
-753 -150 0
753 150 0
-754 -3 0
754 3 0
-755 -153 0
755 153 0
-756 -156 0
756 156 0
-757 -39 0
757 39 0
-758 -159 0
758 159 0
-759 -162 0
759 162 0
-760 -34 0
760 34 0
-761 -165 0
761 165 0
-762 -168 0
762 168 0
-763 -18 0
763 18 0
-764 -171 0
764 171 0
-765 -40 0
765 40 0
-766 -174 0
766 174 0
-767 -177 0
767 177 0
-768 -180 0
768 180 0
-769 -44 0
769 44 0
-770 -183 0
770 183 0
-771 -186 0
771 186 0
-772 -189 0
772 189 0
-773 -28 0
773 28 0
-774 -192 0
774 192 0
-775 -195 0
775 195 0
-776 -45 0
776 45 0
-777 -198 0
777 198 0
-778 -201 0
778 201 0
-779 -204 0
779 204 0
-780 -207 0
780 207 0
-781 -22 0
781 22 0
-782 -210 0
782 210 0
-783 -212 0
783 212 0
-784 -215 0
784 215 0
-785 -218 0
785 218 0
-786 -20 0
786 20 0
-787 -221 0
787 221 0
-788 -48 0
788 48 0
-789 -224 0
789 224 0
-790 -227 0
790 227 0
-791 -230 0
791 230 0
-792 -233 0
792 233 0
-793 -9 0
793 9 0
-794 -236 0
794 236 0
-795 -43 0
795 43 0
-796 -239 0
796 239 0
-797 -242 0
797 242 0
-798 -32 0
798 32 0
-799 -245 0
799 245 0
-800 -247 0
800 247 0
-801 -250 0
801 250 0
-802 -253 0
802 253 0
-803 -256 0
803 256 0
-804 -258 0
804 258 0
-805 -261 0
805 261 0
-806 -264 0
806 264 0
-807 -267 0
807 267 0
-808 -270 0
808 270 0
-809 -273 0
809 273 0
-810 -42 0
810 42 0
-811 -276 0
811 276 0
-812 -30 0
812 30 0
-813 -279 0
813 279 0
-814 -49 0
814 49 0
-815 -282 0
815 282 0
-816 -285 0
816 285 0
-817 -46 0
817 46 0
-818 -288 0
818 288 0
-819 -291 0
819 291 0
-820 -294 0
820 294 0
-821 -297 0
821 297 0
-822 -300 0
822 300 0
-823 -303 0
823 303 0
-824 -306 0
824 306 0
-825 -309 0
825 309 0
-826 -312 0
826 312 0
-827 -315 0
827 315 0
-828 -318 0
828 318 0
-829 -47 0
829 47 0
-830 -321 0
830 321 0
-831 -324 0
831 324 0
-832 -11 0
832 11 0
-833 -327 0
833 327 0
-834 -330 0
834 330 0
-835 -333 0
835 333 0
-836 -336 0
836 336 0
-837 -339 0
837 339 0
-838 -342 0
838 342 0
-839 -345 0
839 345 0
-840 -348 0
840 348 0
-841 -31 0
841 31 0
-842 -351 0
842 351 0
-843 -354 0
843 354 0
-844 -357 0
844 357 0
-845 -360 0
845 360 0
-846 -363 0
846 363 0
-847 -366 0
847 366 0
-848 -369 0
848 369 0
-849 -372 0
849 372 0
-850 -375 0
850 375 0
-851 -378 0
851 378 0
-852 -381 0
852 381 0
-853 -384 0
853 384 0
-854 -387 0
854 387 0
-855 -390 0
855 390 0
-856 -393 0
856 393 0
-857 -396 0
857 396 0
-858 -399 0
858 399 0
-859 -402 0
859 402 0
-860 -405 0
860 405 0
-861 -408 0
861 408 0
-862 -411 0
862 411 0
-863 -414 0
863 414 0
-864 -417 0
864 417 0
-865 -420 0
865 420 0
-866 -423 0
866 423 0
-867 -426 0
867 426 0
-868 -429 0
868 429 0
-869 -432 0
869 432 0
-870 -435 0
870 435 0
-871 -437 0
871 437 0
-872 -440 0
872 440 0
-873 -443 0
873 443 0
-874 -446 0
874 446 0
-875 -449 0
875 449 0
-876 -452 0
876 452 0
-877 -455 0
877 455 0
-878 -458 0
878 458 0
-879 -461 0
879 461 0
-880 -464 0
880 464 0
-881 -467 0
881 467 0
-882 -470 0
882 470 0
-883 -473 0
883 473 0
-884 -476 0
884 476 0
-885 -479 0
885 479 0
-886 -482 0
886 482 0
-887 -485 0
887 485 0
-888 -488 0
888 488 0
-889 -491 0
889 491 0
-890 -494 0
890 494 0
-891 -497 0
891 497 0
-892 -500 0
892 500 0
-893 -503 0
893 503 0
-894 -506 0
894 506 0
-895 -509 0
895 509 0
-896 -512 0
896 512 0
-897 -515 0
897 515 0
-898 -518 0
898 518 0
-899 -521 0
899 521 0
-900 -524 0
900 524 0
-901 -527 0
901 527 0
-902 -530 0
902 530 0
-903 -533 0
903 533 0
-904 -536 0
904 536 0
-905 -538 0
905 538 0
-906 -541 0
906 541 0
-907 -544 0
907 544 0
-908 -547 0
908 547 0
-909 -550 0
909 550 0
-910 -553 0
910 553 0
-911 -50 0
911 50 0
-912 -556 0
912 556 0
-913 -559 0
913 559 0
-914 -562 0
914 562 0
-915 -565 0
915 565 0
-916 -568 0
916 568 0
-917 -571 0
917 571 0
-918 -574 0
918 574 0
-919 -577 0
919 577 0
-920 -580 0
920 580 0
-921 -583 0
921 583 0
-922 -585 0
922 585 0
-923 -588 0
923 588 0
-924 -591 0
924 591 0
-925 -594 0
925 594 0
-926 -597 0
926 597 0
-927 -600 0
927 600 0
-928 -603 0
928 603 0
-929 -606 0
929 606 0
-930 -609 0
930 609 0
-931 -612 0
931 612 0
-932 -615 0
932 615 0
-933 -618 0
933 618 0
-934 -621 0
934 621 0
-935 -624 0
935 624 0
-936 -627 0
936 627 0
-937 -629 0
937 629 0
-938 -632 0
938 632 0
-939 -635 0
939 635 0
-940 -638 0
940 638 0
-941 -641 0
941 641 0
-942 -644 0
942 644 0
-943 -647 0
943 647 0
-944 -650 0
944 650 0
-945 -653 0
945 653 0
-946 -656 0
946 656 0
-947 -659 0
947 659 0
-948 -662 0
948 662 0
-949 -665 0
949 665 0
-950 -668 0
950 668 0
-951 -670 0
951 670 0
-952 -673 0
952 673 0
-953 -676 0
953 676 0
-954 -679 0
954 679 0
-955 -681 0
955 681 0
-956 -684 0
956 684 0
-957 -687 0
957 687 0
-958 -690 0
958 690 0
691 0
